659.56
0 3 15 60 29 2 4 51 18 33 36 50 10 72 12 26 61 11 71 35 74 55 64 57 23 62 20 66 65 34 46 7 45 31 73 39 17 32 47 5 28 54 42 67 52 59 53 41 37 22 1 27 70 58 30 40 19 49 63 16 48 24 14 56 9 69 8 25 6 21 68 44 43 13 38
